Version identifier: 22.1.0.0 | 2022-03-09 | 1a383f8ce
CPXPARAM_Threads                                 1
CPXPARAM_MIP_Strategy_VariableSelect             3
CPXPARAM_TimeLimit                               600
Retaining values of one MIP start for possible repair.
Tried aggregator 2 times.
MIP Presolve eliminated 37 rows and 1 columns.
MIP Presolve added 32 rows and 8 columns.
MIP Presolve modified 73 coefficients.
Aggregator did 8 substitutions.
Reduced MIP has 1212 rows, 5000 columns, and 72772 nonzeros.
Reduced MIP has 5000 binaries, 0 generals, 0 SOSs, and 0 indicators.
Presolve time = 0.11 sec. (128.33 ticks)
Found incumbent of value 1.000000 after 0.15 sec. (140.57 ticks)
Probing time = 0.02 sec. (15.05 ticks)
Tried aggregator 1 time.
Detecting symmetries...
MIP Presolve modified 14 coefficients.
Reduced MIP has 1212 rows, 5000 columns, and 73148 nonzeros.
Reduced MIP has 5000 binaries, 0 generals, 0 SOSs, and 0 indicators.
Presolve time = 0.08 sec. (84.04 ticks)
Probing time = 0.02 sec. (15.09 ticks)
Clique table members: 796.
MIP emphasis: balance optimality and feasibility.
MIP search method: dynamic search.
Parallel mode: none, using 1 thread.
Root relaxation solution time = 1.02 sec. (1142.80 ticks)

        Nodes                                         Cuts/
   Node  Left     Objective  IInf  Best Integer    Best Bound    ItCnt     Gap

*     0+    0                            1.0000    20100.0000              --- 
      0     0      200.0000   861        1.0000      200.0000     4246     --- 
*     0+    0                           17.0000      200.0000              --- 
      0     0      200.0000   405       17.0000       Cuts: 4     7492     --- 
      0     0      200.0000   300       17.0000    Cliques: 6     8219     --- 
      0     0      200.0000   448       17.0000      Cuts: 42    11273     --- 
*     0+    0                           87.0000      200.0000           129.89%
*     0+    0                          174.0000      200.0000            14.94%
*     0+    0                          183.0000      200.0000             9.29%
      0     0        cutoff            183.0000      200.0000    11273    9.29%
      0     0      200.0000   278      183.0000       Cuts: 3    11594    9.29%
      0     0      200.0000   478      183.0000      Cuts: 69    15399    9.29%
Detecting symmetries...
*     0+    0                          186.0000      200.0000             7.53%
      0     0        cutoff            186.0000      200.0000    15399    7.53%
Repair heuristic succeeded.
Detecting symmetries...
      0     2      200.0000   304      186.0000      200.0000    15399    7.53%
Elapsed time = 41.62 sec. (47662.43 ticks, tree = 0.01 MB, solutions = 6)
      1     3      200.0000   320      186.0000      200.0000    16075    7.53%
      2     4      200.0000   711      186.0000      200.0000    20560    7.53%
      3     5      200.0000   359      186.0000      200.0000    23800    7.53%
      4     5      200.0000   460      186.0000      200.0000    25818    7.53%
      5     6      200.0000   285      186.0000      200.0000    33215    7.53%
      6     6      199.0000   503      186.0000      200.0000    38736    7.53%
      7     7      200.0000   283      186.0000      200.0000    45500    7.53%
      8     8      200.0000   235      186.0000      200.0000    52894    7.53%
      9     9      200.0000   256      186.0000      200.0000    57981    7.53%
     10     9      200.0000   303      186.0000      200.0000    63335    7.53%
Elapsed time = 53.62 sec. (60631.50 ticks, tree = 0.03 MB, solutions = 6)
     12    11      200.0000   283      186.0000      200.0000    70197    7.53%
     14    12      200.0000   244      186.0000      200.0000    81313    7.53%
     17    13      200.0000   403      186.0000      200.0000    88229    7.53%
     20    16      200.0000   330      186.0000      200.0000    90094    7.53%
     24    20      200.0000   312      186.0000      200.0000    93186    7.53%
     27    23      200.0000   272      186.0000      200.0000    97107    7.53%
     30    26      200.0000   618      186.0000      200.0000   105526    7.53%
     32    28      200.0000   294      186.0000      200.0000   108917    7.53%
     35    29      200.0000   265      186.0000      200.0000   118820    7.53%
     38    31      200.0000   281      186.0000      200.0000   121377    7.53%
Elapsed time = 67.91 sec. (75613.91 ticks, tree = 0.24 MB, solutions = 6)
     41    32      200.0000   295      186.0000      200.0000   125820    7.53%
     44    35      200.0000   366      186.0000      200.0000   127451    7.53%
     47    38      200.0000   358      186.0000      200.0000   130237    7.53%
     50    41      200.0000   378      186.0000      200.0000   136180    7.53%
     54    44      199.0000   422      186.0000      200.0000   139223    7.53%
     57    47      200.0000   299      186.0000      200.0000   141409    7.53%
     60    49      200.0000   150      186.0000      200.0000   147309    7.53%
     64    51      200.0000   212      186.0000      200.0000   157461    7.53%
     68    53      200.0000   192      186.0000      200.0000   163916    7.53%
     71    54      200.0000   221      186.0000      200.0000   168196    7.53%
Elapsed time = 79.34 sec. (87512.97 ticks, tree = 0.50 MB, solutions = 6)
     74    56      199.0000   364      186.0000      200.0000   174896    7.53%
     77    57      200.0000   209      186.0000      200.0000   182852    7.53%
     80    60      200.0000   321      186.0000      200.0000   185005    7.53%
     85    64      200.0000   231      186.0000      200.0000   187454    7.53%
     89    65      199.2814   368      186.0000      200.0000   191221    7.53%
     93    69      200.0000   190      186.0000      200.0000   194019    7.53%
     97    73      200.0000   179      186.0000      200.0000   196777    7.53%
    102    76      200.0000   178      186.0000      200.0000   199872    7.53%
    107    79      200.0000   173      186.0000      200.0000   203446    7.53%
    112    82      200.0000   171      186.0000      200.0000   206904    7.53%
Elapsed time = 89.34 sec. (97929.01 ticks, tree = 0.83 MB, solutions = 6)
    118    84      199.0000   323      186.0000      200.0000   209994    7.53%
    125    88      199.0000   295      186.0000      200.0000   211727    7.53%
    131    91      199.0000   349      186.0000      200.0000   214545    7.53%
    138    94      198.4639   328      186.0000      200.0000   217867    7.53%
    143    96      198.6304   365      186.0000      200.0000   221381    7.53%
    149    99      198.0000   349      186.0000      200.0000   224560    7.53%
    155   103      199.0000   198      186.0000      200.0000   227259    7.53%
    160   106      199.0000   207      186.0000      200.0000   230208    7.53%
    169   111      198.0000   334      186.0000      200.0000   232985    7.53%
    177   115      196.0000   255      186.0000      200.0000   235192    7.53%
Elapsed time = 99.19 sec. (108245.27 ticks, tree = 1.22 MB, solutions = 6)
    186   120      194.4615   184      186.0000      200.0000   237345    7.53%
    196   127      194.0000   202      186.0000      200.0000   238992    7.53%
    209   134      191.5556   130      186.0000      200.0000   241292    7.53%
    223   144      192.0000   118      186.0000      200.0000   243249    7.53%
    237   151      192.0000   130      186.0000      200.0000   244892    7.53%
    254   164      190.0000   121      186.0000      200.0000   246095    7.53%
    273   174      190.0000   114      186.0000      200.0000   247343    7.53%
    293   177      190.0000   126      186.0000      200.0000   248828    7.53%
    315   187      189.0000    66      186.0000      200.0000   250505    7.53%
*   325   179      integral     0      189.0000      200.0000   251197    5.82%
    326   178      199.0000   257      189.0000      200.0000   253149    5.82%
Elapsed time = 109.75 sec. (118015.35 ticks, tree = 1.98 MB, solutions = 7)
    331   180      198.0000   357      189.0000      200.0000   255310    5.82%
    337   183      198.0000   249      189.0000      200.0000   257056    5.82%
    342   187      198.0000   254      189.0000      200.0000   259193    5.82%
    347   189      198.0000   264      189.0000      200.0000   262676    5.82%
    354   193      198.0000   198      189.0000      200.0000   265790    5.82%
    360   196      198.0000   217      189.0000      200.0000   269171    5.82%
    367   198      197.0000   252      189.0000      200.0000   271412    5.82%
    374   201      196.0000   368      189.0000      200.0000   274270    5.82%
    382   207      196.0000   352      189.0000      200.0000   275151    5.82%
    390   213      195.0000   202      189.0000      200.0000   276905    5.82%
Elapsed time = 119.74 sec. (128436.76 ticks, tree = 2.37 MB, solutions = 7)
    400   218      193.0000   206      189.0000      200.0000   279008    5.82%
    414   228      190.0000   147      189.0000      200.0000   280610    5.82%
    431   239      190.0000    86      189.0000      200.0000   281695    5.82%
    450   245      190.0000    85      189.0000      200.0000   282582    5.82%
    469   253      200.0000   243      189.0000      200.0000   285816    5.82%
    473   255      199.0000   321      189.0000      200.0000   289110    5.82%
    479   256      198.0000   288      189.0000      200.0000   290858    5.82%
    486   260      197.0000   313      189.0000      200.0000   292828    5.82%
    496   264      196.0000   320      189.0000      200.0000   294263    5.82%
    506   272      196.0000   178      189.0000      200.0000   295530    5.82%
Elapsed time = 130.88 sec. (138980.05 ticks, tree = 3.06 MB, solutions = 7)
    517   280      195.0000   222      189.0000      200.0000   296949    5.82%
    531   289      193.0000   134      189.0000      200.0000   297955    5.82%
    548   305      192.0000   123      189.0000      200.0000   299125    5.82%
    569   313      190.0000   102      189.0000      200.0000   299953    5.82%
    585   315      199.0000   306      189.0000      200.0000   302364    5.82%
    592   319      197.0000   233      189.0000      200.0000   304612    5.82%
    600   323      196.0000   330      189.0000      200.0000   306428    5.82%
    611   329      194.0000   227      189.0000      200.0000   308069    5.82%
    623   335      194.0000   223      189.0000      200.0000   309076    5.82%
    637   337    infeasible            189.0000      200.0000   310260    5.82%
Elapsed time = 141.45 sec. (148953.02 ticks, tree = 3.81 MB, solutions = 7)
    653   340      194.0000   181      189.0000      200.0000   311597    5.82%
    669   344      194.0000   145      189.0000      200.0000   312949    5.82%
    687   344      194.0000   153      189.0000      200.0000   315177    5.82%
    698   343      198.0000   383      189.0000      200.0000   319880    5.82%
    706   349      198.0000   318      189.0000      200.0000   321678    5.82%
    714   353      196.0000   323      189.0000      200.0000   323765    5.82%
    722   358      196.0000   285      189.0000      200.0000   325328    5.82%
    731   363      195.0000   255      189.0000      200.0000   327496    5.82%
    741   370      194.0000   234      189.0000      200.0000   329044    5.82%
    789   406      190.0000   144      189.0000      200.0000   332512    5.82%
Elapsed time = 155.14 sec. (161966.74 ticks, tree = 4.60 MB, solutions = 7)
    856   424      199.0000   400      189.0000      200.0000   337991    5.82%
    897   443      192.0000   152      189.0000      200.0000   345103    5.82%
    950   457      198.0000   329      189.0000      200.0000   352079    5.82%
    989   474      192.0000   171      189.0000      200.0000   358112    5.82%
   1026   492      197.0000   318      189.0000      200.0000   365241    5.82%
   1076   530      191.0000    64      189.0000      200.0000   371594    5.82%
   1119   541      199.0000   323      189.0000      200.0000   378721    5.82%
   1150   559      194.9107   205      189.0000      200.0000   383952    5.82%
   1220   583      200.0000   210      189.0000      200.0000   390976    5.82%
   1238   592      199.0000   319      189.0000      200.0000   402871    5.82%
Elapsed time = 196.05 sec. (201054.08 ticks, tree = 6.73 MB, solutions = 7)
   1260   605      198.0000   272      189.0000      200.0000   411078    5.82%
   1295   622      193.0000   146      189.0000      200.0000   419854    5.82%
   1354   657      190.0000   111      189.0000      200.0000   425957    5.82%
   1426   677      198.0000   369      189.0000      200.0000   431916    5.82%
   1466   694      193.0000   131      189.0000      200.0000   438750    5.82%
   1513   702      198.0000   330      189.0000      200.0000   448549    5.82%
   1536   714      200.0000   429      189.0000      200.0000   454632    5.82%

Performing restart 1

Repeating presolve.
Tried aggregator 1 time.
MIP Presolve eliminated 0 rows and 189 columns.
MIP Presolve modified 14052 coefficients.
Reduced MIP has 1212 rows, 4811 columns, and 48469 nonzeros.
Reduced MIP has 4811 binaries, 0 generals, 0 SOSs, and 0 indicators.
Presolve time = 0.04 sec. (38.42 ticks)
Tried aggregator 1 time.
MIP Presolve eliminated 0 rows and 376 columns.
Reduced MIP has 1212 rows, 4435 columns, and 43037 nonzeros.
Reduced MIP has 4435 binaries, 0 generals, 0 SOSs, and 0 indicators.
Presolve time = 0.03 sec. (21.25 ticks)
Tried aggregator 1 time.
Reduced MIP has 1212 rows, 4435 columns, and 43037 nonzeros.
Reduced MIP has 4435 binaries, 0 generals, 0 SOSs, and 0 indicators.
Presolve time = 0.03 sec. (25.11 ticks)
Represolve time = 0.43 sec. (268.53 ticks)
   1538     0      199.0000   896      189.0000     Cuts: 318   464577    5.29%
   1538     0      199.0000   896      189.0000     Cuts: 294   473196    5.29%
   1538     0      199.0000   500      189.0000      Cuts: 12   476940    5.29%
   1538     0      199.0000   613      189.0000      Cuts: 92   480051    5.29%
   1538     0      199.0000   380      189.0000      Cuts: 10   482022    5.29%
   1538     0      199.0000   477      189.0000     Cuts: 121   484121    5.29%
   1538     0      199.0000   453      189.0000      Cuts: 19   486277    5.29%
   1538     0      199.0000   567      189.0000     Cuts: 142   489566    5.29%
   1538     2      199.0000   283      189.0000      199.0000   489566    5.29%
   1541     5      199.0000   495      189.0000      199.0000   503614    5.29%
   1545     9      199.0000   780      189.0000      199.0000   523573    5.29%
Elapsed time = 286.42 sec. (287425.51 ticks, tree = 0.04 MB, solutions = 7)
   1548    12      199.0000   775      189.0000      199.0000   525262    5.29%
   1553    17      199.0000   436      189.0000      199.0000   537382    5.29%
   1563    27      199.0000   596      189.0000      199.0000   552968    5.29%
   1576    39      199.0000   396      189.0000      199.0000   571868    5.29%
   1601    62      190.0000   311      189.0000      199.0000   585908    5.29%
   1638    95      190.0000    60      189.0000      199.0000   599480    5.29%
*  1652    39      integral     0      190.0000      199.0000   605198    4.74%
   1661    47      199.0000   309      190.0000      199.0000   629929    4.74%
   1672    52      199.0000   351      190.0000      199.0000   659160    4.74%
   1686    54      199.0000   356      190.0000      199.0000   707377    4.74%
   1698    59      196.0000   286      190.0000      199.0000   735817    4.74%
Elapsed time = 339.57 sec. (336871.63 ticks, tree = 0.14 MB, solutions = 8)
   1705    60        cutoff            190.0000      199.0000   757660    4.74%
   1716    66      197.9143   397      190.0000      199.0000   787613    4.74%
   1733    74      197.0000   304      190.0000      199.0000   824128    4.74%
   1742    77      198.0000   378      190.0000      199.0000   852325    4.74%
   1757    80        cutoff            190.0000      199.0000   882967    4.74%
   1786    86      193.0000   341      190.0000      199.0000   905051    4.74%
   1812    90      193.0000   218      190.0000      199.0000   945835    4.74%
   1833    93      199.0000   306      190.0000      199.0000   989357    4.74%
   1848   105      197.8182   388      190.0000      199.0000  1032300    4.74%
   1860   113      199.0000   414      190.0000      199.0000  1081570    4.74%
Elapsed time = 386.59 sec. (378270.15 ticks, tree = 0.24 MB, solutions = 8)
   1874   117      199.0000   373      190.0000      199.0000  1125016    4.74%
   1887   121        cutoff            190.0000      199.0000  1161094    4.74%
   1896   125      199.0000   322      190.0000      199.0000  1197617    4.74%
   1908   130      199.0000   440      190.0000      199.0000  1245236    4.74%
   1917   135      199.0000   531      190.0000      199.0000  1277713    4.74%
   1933   142      199.0000   349      190.0000      199.0000  1320995    4.74%
   1948   144      197.0000   389      190.0000      199.0000  1350495    4.74%
   1962   148      197.0000   476      190.0000      199.0000  1382175    4.74%
   1976   156      197.0000   335      190.0000      199.0000  1411887    4.74%
   1991   160      197.0000   352      190.0000      199.0000  1460659    4.74%
Elapsed time = 431.97 sec. (418114.41 ticks, tree = 0.33 MB, solutions = 8)
   2012   169      196.4883   382      190.0000      199.0000  1496276    4.74%
   2035   178      195.0000   309      190.0000      199.0000  1526028    4.74%
   2066   187        cutoff            190.0000      199.0000  1557130    4.74%
   2100   197      193.0000   296      190.0000      199.0000  1588232    4.74%
   2127   203      197.0000   485      190.0000      199.0000  1614838    4.74%
   2141   210      196.0000   379      190.0000      199.0000  1647305    4.74%
   2151   213      199.0000   289      190.0000      199.0000  1683599    4.74%
   2170   219      197.0000   421      190.0000      199.0000  1714895    4.74%
   2190   226      195.0000   243      190.0000      199.0000  1747563    4.74%
   2219   236      193.0000   188      190.0000      199.0000  1773285    4.74%
Elapsed time = 478.05 sec. (457267.33 ticks, tree = 0.48 MB, solutions = 8)
   2253   241      199.0000   358      190.0000      199.0000  1819251    4.74%
   2260   248      197.0000   396      190.0000      199.0000  1837951    4.74%
   2287   257      195.0000   232      190.0000      199.0000  1872956    4.74%
   2309   259      199.0000   393      190.0000      199.0000  1902983    4.74%
   2320   265      198.0000   330      190.0000      199.0000  1950147    4.74%
   2332   267      198.0000   349      190.0000      199.0000  2002761    4.74%
   2344   270      198.0000   362      190.0000      199.0000  2056020    4.74%
   2354   273      198.0000   361      190.0000      199.0000  2085290    4.74%
   2369   278        cutoff            190.0000      199.0000  2114167    4.74%
   2381   282      198.0000   341      190.0000      199.0000  2152489    4.74%
Elapsed time = 526.59 sec. (499595.79 ticks, tree = 0.58 MB, solutions = 8)
   2397   288      197.0000   485      190.0000      199.0000  2181437    4.74%
   2412   295      196.0000   393      190.0000      199.0000  2200614    4.74%
   2427   300      197.0000   278      190.0000      199.0000  2226955    4.74%
Starting limited solution polishing.
   2443   303      196.0000   390      190.0000      199.0000  2273848    4.74%
   2459   311      195.8524   375      190.0000      199.0000  2327923    4.74%
   2481   316        cutoff            190.0000      199.0000  2359813    4.74%
   2506   324    infeasible            190.0000      199.0000  2383428    4.74%
   2540   329    infeasible            190.0000      199.0000  2405658    4.74%
   2558   335      197.0000   405      190.0000      199.0000  2425622    4.74%
   2571   339      196.8333   398      190.0000      199.0000  2446077    4.74%
Elapsed time = 571.45 sec. (539411.84 ticks, tree = 0.69 MB, solutions = 8)
   2582   341      199.0000   308      190.0000      199.0000  2462847    4.74%
   2599   346      198.0000   393      190.0000      199.0000  2486280    4.74%
   2611   349      197.0000   435      190.0000      199.0000  2501276    4.74%
   2622   353      199.0000   454      190.0000      199.0000  2514162    4.74%
   2632   356        cutoff            190.0000      199.0000  2540587    4.74%
   2645   361      199.0000   387      190.0000      199.0000  2562263    4.74%

Clique cuts applied:  74
Mixed integer rounding cuts applied:  5
Zero-half cuts applied:  83
Gomory fractional cuts applied:  4

Root node processing (before b&c):
  Real time             =   41.55 sec. (47602.36 ticks)
Sequential b&c:
  Real time             =  558.45 sec. (518235.68 ticks)
                          ------------
Total (root+branch&cut) =  600.00 sec. (565838.04 ticks)
Primal:	190
Dual:	199
Status:	Feasible
Time:	600.04
Sequence:
	21
	8
	14
	8
	14
	11
	14
	8
	10
	14
	7
	10
	14
	8
	17
	2
	18
	8
	14
	4
	17
	6
	5
	6
	14
	6
	19
	2
	14
	6
	17
	5
	17
	6
	16
	8
	19
	3
	17
	6
	15
	12
	17
	0
	20
	6
	15
	6
	17
	5
	17
	6
	16
	8
	18
	2
	19
	6
	16
	9
	6
	16
	8
	17
	3
	19
	6
	15
	10
	14
	8
	10
	15
	6
	16
	7
	14
	8
	19
	2
	18
	6
	16
	8
	19
	0
	20
	6
	14
	6
	22
	0
	17
	12
	14
	8
	17
	3
	17
	8
	15
	10
	14
	7
	19
	4
	17
	6
	16
	8
	18
	4
	17
	6
	14
	9
	16
	6
	14
	10
	17
	1
	22
	6
	14
	6
	16
	9
	14
	10
	14
	8
	18
	4
	17
	6
	16
	8
	14
	7
	12
	14
	8
	16
	7
	14
	10
	15
	6
	16
	9
	17
	4
	17
	6
	14
	13
	6
	15
	6
	20
	1
	17
	12
	14
	6
	14
	6
	5
	17
	8
	14
	10
	15
	7
	10
	14
	8
	17
	4
	17
	6
	15
	11
	8
	14
	10
	14
	9
	22
